# Objective value = 1.9421771030051555e+03
x[0] 1
x[1] 0
x[2] 1
x[3] 1
x[4] 1
x[5] 1
x[6] 0
x[7] 0
x[8] 0
x[9] 0
x[10] 1
x[11] 0
x[12] 1
x[13] 1
x[14] 1
x[15] 0
x[16] 1
x[17] 1
x[18] 1
x[19] 1
x[20] 1
x[21] 1
x[22] 1
x[23] 1
x[24] 1
x[25] 1
x[26] 0
x[27] 1
x[28] 1
x[29] 0
x[30] 1
x[31] 0
x[32] 1
x[33] 0
x[34] 1
x[35] 0
x[36] 0
x[37] 0
x[38] 0
x[39] 0
x[40] 1
x[41] 1
x[42] 1
x[43] 1
x[44] 1
x[45] 0
x[46] 1
x[47] 0
x[48] 1
x[49] 0
x[50] 1
x[51] 0
x[52] 1
x[53] 0
x[54] 1
x[55] 0
x[56] 0
x[57] 0
x[58] 1
x[59] 1
x[60] 0
x[61] 0
x[62] 1
x[63] 1
x[64] 0
x[65] 1
x[66] 0
x[67] 1
x[68] 0
x[69] 1
x[70] 1
x[71] 1
x[72] 1
x[73] 1
x[74] 0
x[75] 0
x[76] 0
x[77] 0
x[78] 1
x[79] 1
x[80] 1
x[81] 0
x[82] 1
x[83] 0
x[84] 1
x[85] 1
x[86] 0
x[87] 1
x[88] 0
x[89] 1
x[90] 1
x[91] 0
x[92] 1
x[93] 1
x[94] 1
x[95] 0
x[96] 1
x[97] 0
x[98] 1
x[99] 1
x[100] 1
x[101] 1
x[102] 0
x[103] 0
x[104] 1
x[105] 1
x[106] 0
x[107] 1
x[108] 1
x[109] 0
x[110] 0
x[111] 1
x[112] 0
x[113] 0
x[114] 0
x[115] 1
x[116] 1
x[117] 0
x[118] 1
x[119] 1
x[120] 1
x[121] 0
x[122] 1
x[123] 0
x[124] 1
x[125] 0
x[126] 1
x[127] 0
x[128] 0
x[129] 1
x[130] 1
x[131] 1
x[132] 1
x[133] 1
x[134] 1
x[135] 1
x[136] 1
x[137] 1
x[138] 1
x[139] 1
x[140] 1
x[141] 1
x[142] 1
x[143] 1
x[144] 0
x[145] 0
x[146] 0
x[147] 1
x[148] 1
x[149] 1
x[150] 1
x[151] 1
x[152] 0
x[153] 0
x[154] 1
x[155] 1
x[156] 1
x[157] 1
x[158] 0
x[159] 0
x[160] 1
x[161] 1
x[162] 1
x[163] 0
x[164] 1
x[165] 0
x[166] 1
x[167] 1
x[168] 0
x[169] 0
x[170] 1
x[171] 1
x[172] 0
x[173] 1
x[174] 1
x[175] 0
x[176] 0
x[177] 0
x[178] 1
x[179] 0
x[180] 1
x[181] 0
x[182] 0
x[183] 1
x[184] 1
x[185] 0
x[186] 0
x[187] 1
x[188] 1
x[189] 1
x[190] 0
x[191] 0
x[192] 0
x[193] 1
x[194] 1
x[195] 1
x[196] 0
x[197] 0
x[198] 0
x[199] 1
x[200] 0
x[201] 1
x[202] 1
x[203] 0
x[204] 1
x[205] 1
x[206] 0
x[207] 0
x[208] 0
x[209] 0
x[210] 0
x[211] 1
x[212] 0
x[213] 0
x[214] 1
x[215] 0
x[216] 0
x[217] 0
x[218] 1
x[219] 1
x[220] 1
x[221] 1
x[222] 0
x[223] 0
x[224] 0
x[225] 1
x[226] 0
x[227] 1
x[228] 1
x[229] 0
x[230] 1
x[231] 1
x[232] 1
x[233] 1
x[234] 1
x[235] 1
x[236] 0
x[237] 1
x[238] 1
x[239] 1
x[240] 1
x[241] 0
x[242] 1
x[243] 1
x[244] 0
x[245] 0
x[246] 1
x[247] 1
x[248] 0
x[249] 1
x[250] 1
x[251] 1
x[252] 0
x[253] 1
x[254] 1
x[255] 1
x[256] 0
x[257] 0
x[258] 1
x[259] 1
x[260] 0
x[261] 1
x[262] 1
x[263] 0
x[264] 0
x[265] 0
x[266] 1
x[267] 0
x[268] 1
x[269] 1
x[270] 0
x[271] 1
x[272] 1
x[273] 1
x[274] 1
x[275] 0
x[276] 1
x[277] 1
x[278] 1
x[279] 1
x[280] 0
x[281] 1
x[282] 1
x[283] 1
x[284] 1
x[285] 1
x[286] 1
x[287] 1
x[288] 0
x[289] 0
x[290] 0
x[291] 1
x[292] 0
x[293] 1
x[294] 1
x[295] 0
x[296] 0
x[297] 1
x[298] 1
x[299] 1
x[300] 1
x[301] 0
x[302] 0
x[303] 1
x[304] 1
x[305] 1
x[306] 1
x[307] 1
x[308] 1
x[309] 1
x[310] 1
x[311] 1
x[312] 1
x[313] 0
x[314] 0
x[315] 1
x[316] 1
x[317] 1
x[318] 0
x[319] 0
x[320] 0
x[321] 1
x[322] 0
x[323] 1
x[324] 1
x[325] 0
x[326] 1
x[327] 0
x[328] 0
x[329] 0
x[330] 1
x[331] 0
x[332] 1
x[333] 0
x[334] 0
x[335] 1
x[336] 0
x[337] 0
x[338] 1
x[339] 1
x[340] 0
x[341] 1
x[342] 1
x[343] 0
x[344] 1
x[345] 1
x[346] 1
x[347] 0
x[348] 1
x[349] 0
x[350] 1
x[351] 0
x[352] 0
x[353] 0
x[354] 0
x[355] 1
x[356] 0
x[357] 1
x[358] 1
x[359] 1
x[360] 1
x[361] 0
x[362] 1
x[363] 1
x[364] 1
x[365] 0
x[366] 1
x[367] 1
x[368] 1
x[369] 1
x[370] 1
x[371] 1
x[372] 1
x[373] 0
x[374] 1
x[375] 1
x[376] 0
x[377] 1
x[378] 0
x[379] 1
x[380] 0
x[381] 1
x[382] 0
x[383] 1
x[384] 0
x[385] 0
x[386] 1
x[387] 1
x[388] 1
x[389] 1
x[390] 1
x[391] 1
x[392] 1
x[393] 1
x[394] 1
x[395] 1
x[396] 0
x[397] 1
x[398] 0
x[399] 0
x[400] 1
x[401] 1
x[402] 1
x[403] 1
x[404] 1
x[405] 1
x[406] 1
x[407] 1
x[408] 0
x[409] 1
x[410] 1
x[411] 0
x[412] 0
x[413] 0
x[414] 0
x[415] 1
x[416] 0
x[417] 1
x[418] 1
x[419] 0
x[420] 0
x[421] 1
x[422] 0
x[423] 1
x[424] 1
x[425] 1
x[426] 0
x[427] 1
x[428] 1
x[429] 1
x[430] 1
x[431] 0
x[432] 1
x[433] 0
x[434] 0
x[435] 0
x[436] 1
x[437] 0
x[438] 0
x[439] 1
x[440] 0
x[441] 1
x[442] 1
x[443] 1
x[444] 0
x[445] 1
x[446] 0
x[447] 0
x[448] 1
x[449] 0
x[450] 1
x[451] 1
x[452] 1
x[453] 1
x[454] 0
x[455] 1
x[456] 1
x[457] 0
x[458] 1
x[459] 0
x[460] 1
x[461] 0
x[462] 0
x[463] 1
x[464] 1
x[465] 1
x[466] 1
x[467] 0
x[468] 1
x[469] 1
x[470] 1
x[471] 1
x[472] 0
x[473] 0
x[474] 1
x[475] 0
x[476] 1
x[477] 0
x[478] 1
x[479] 0
x[480] 0
x[481] 0
x[482] 1
x[483] 1
x[484] 1
x[485] 1
x[486] 0
x[487] 0
x[488] 0
x[489] 1
x[490] 1
x[491] 0
x[492] 1
x[493] 0
x[494] 0
x[495] 1
x[496] 0
x[497] 0
x[498] 0
x[499] 1
x[500] 0
x[501] 1
x[502] 1
x[503] 0
x[504] 1
x[505] 1
x[506] 0
x[507] 0
x[508] 1
x[509] 1
x[510] 1
x[511] 0
x[512] 0
x[513] 1
x[514] 1
x[515] 0
x[516] 0
x[517] 1
x[518] 1
x[519] 1
x[520] 1
x[521] 0
x[522] 1
x[523] 1
x[524] 1
x[525] 1
x[526] 0
x[527] 0
x[528] 1
x[529] 1
x[530] 1
x[531] 0
x[532] 1
x[533] 0
x[534] 1
x[535] 0
x[536] 1
x[537] 1
x[538] 0
x[539] 0
x[540] 1
x[541] 1
x[542] 0
x[543] 0
x[544] 0
x[545] 1
x[546] 0
x[547] 0
x[548] 1
x[549] 0
x[550] 0
x[551] 1
x[552] 1
x[553] 1
x[554] 1
x[555] 0
x[556] 1
x[557] 1
x[558] 0
x[559] 0
x[560] 1
x[561] 1
x[562] 1
x[563] 0
x[564] 1
x[565] 1
x[566] 0
x[567] 1
x[568] 0
x[569] 0
x[570] 1
x[571] 1
x[572] 1
x[573] 1
x[574] 1
x[575] 1
x[576] 0
x[577] 0
x[578] 0
x[579] 0
x[580] 1
x[581] 0
x[582] 0
x[583] 1
x[584] 1
x[585] 1
x[586] 1
x[587] 0
x[588] 0
x[589] 1
x[590] 1
x[591] 1
x[592] 1
x[593] 1
x[594] 0
x[595] 1
x[596] 0
x[597] 0
x[598] 0
x[599] 1
x[600] 1
x[601] 0
x[602] 0
x[603] 1
x[604] 1
x[605] 0
x[606] 1
x[607] 1
x[608] 1
x[609] 1
x[610] 0
x[611] 1
x[612] 0
x[613] 0
x[614] 0
x[615] 1
x[616] 0
x[617] 0
x[618] 1
x[619] 1
x[620] 1
x[621] 0
x[622] 1
x[623] 1
x[624] 0
x[625] 1
x[626] 0
x[627] 1
x[628] 0
x[629] 1
x[630] 0
x[631] 1
x[632] 0
x[633] 1
x[634] 0
x[635] 1
x[636] 1
x[637] 0
x[638] 0
x[639] 0
x[640] 0
x[641] 1
x[642] 1
x[643] 1
x[644] 1
x[645] 1
x[646] 1
x[647] 0
x[648] 0
x[649] 1
x[650] 1
x[651] 1
x[652] 0
x[653] 1
x[654] 1
x[655] 0
x[656] 1
x[657] 1
x[658] 1
x[659] 1
x[660] 0
x[661] 0
x[662] 1
x[663] 0
x[664] 1
x[665] 1
x[666] 1
x[667] 1
x[668] 0
x[669] 1
x[670] 0
x[671] 1
x[672] 0
x[673] 0
x[674] 0
x[675] 1
x[676] 0
x[677] 1
x[678] 1
x[679] 0
x[680] 0
x[681] 1
x[682] 0
x[683] 0
x[684] 1
x[685] 1
x[686] 0
x[687] 1
x[688] 1
x[689] 1
x[690] 0
x[691] 1
x[692] 0
x[693] 1
x[694] 1
x[695] 1
x[696] 0
x[697] 0
x[698] 0
x[699] 1
x[700] 1
x[701] 0
x[702] 1
x[703] 1
x[704] 1
x[705] 1
x[706] 0
x[707] 1
x[708] 0
x[709] 1
x[710] 1
x[711] 1
x[712] 1
x[713] 0
x[714] 0
x[715] 1
x[716] 0
x[717] 1
x[718] 1
x[719] 1
x[720] 0
x[721] 0
x[722] 1
x[723] 0
x[724] 0
x[725] 0
x[726] 1
x[727] 0
x[728] 1
x[729] 0
x[730] 1
x[731] 1
x[732] 1
x[733] 0
x[734] 1
x[735] 1
x[736] 1
x[737] 0
x[738] 0
x[739] 1
x[740] 1
x[741] 0
x[742] 1
x[743] 0
x[744] 1
x[745] 1
x[746] 1
x[747] 0
x[748] 0
x[749] 1
x[750] 1
x[751] 0
x[752] 0
x[753] 0
x[754] 0
x[755] 1
x[756] 1
x[757] 0
x[758] 0
x[759] 0
x[760] 0
x[761] 0
x[762] 0
x[763] 1
x[764] 0
x[765] 0
x[766] 0
x[767] 0
x[768] 0
x[769] 1
x[770] 1
x[771] 0
x[772] 0
x[773] 0
x[774] 0
x[775] 1
x[776] 1
x[777] 1
x[778] 1
x[779] 1
x[780] 1
x[781] 1
x[782] 0
x[783] 0
x[784] 1
x[785] 0
x[786] 0
x[787] 1
x[788] 1
x[789] 0
x[790] 1
x[791] 1
x[792] 0
x[793] 0
x[794] 1
x[795] 1
x[796] 1
x[797] 1
x[798] 0
x[799] 0
x[800] 0
x[801] 0
x[802] 0
x[803] 1
x[804] 0
x[805] 0
x[806] 1
x[807] 1
x[808] 1
x[809] 1
x[810] 0
x[811] 0
x[812] 0
x[813] 0
x[814] 0
x[815] 1
x[816] 1
x[817] 0
x[818] 1
x[819] 1
x[820] 1
x[821] 1
x[822] 1
x[823] 0
x[824] 0
x[825] 1
x[826] 1
x[827] 0
x[828] 0
x[829] 0
x[830] 1
x[831] 0
x[832] 0
x[833] 0
x[834] 1
x[835] 0
x[836] 1
x[837] 0
x[838] 1
x[839] 1
x[840] 0
x[841] 1
x[842] 1
x[843] 0
x[844] 1
x[845] 0
x[846] 0
x[847] 0
x[848] 1
x[849] 0
x[850] 0
x[851] 0
x[852] 1
x[853] 1
x[854] 1
x[855] 0
x[856] 1
x[857] 1
x[858] 0
x[859] 0
x[860] 1
x[861] 0
x[862] 0
x[863] 1
x[864] 0
x[865] 0
x[866] 1
x[867] 1
x[868] 0
x[869] 0
x[870] 0
x[871] 1
x[872] 0
x[873] 1
x[874] 1
x[875] 1
x[876] 1
x[877] 0
x[878] 0
x[879] 0
x[880] 1
x[881] 1
x[882] 0
x[883] 0
x[884] 0
x[885] 0
x[886] 0
x[887] 0
x[888] 1
x[889] 0
x[890] 0
x[891] 1
x[892] 1
x[893] 1
x[894] 1
x[895] 1
x[896] 1
x[897] 1
x[898] 0
x[899] 0
x[900] 1
x[901] 1
x[902] 0
x[903] 1
x[904] 0
x[905] 1
x[906] 0
x[907] 1
x[908] 1
x[909] 0
x[910] 0
x[911] 1
x[912] 0
x[913] 0
x[914] 0
x[915] 1
x[916] 0
x[917] 0
x[918] 0
x[919] 0
x[920] 0
x[921] 0
x[922] 0
x[923] 0
x[924] 0
x[925] 1
x[926] 1
x[927] 0
x[928] 0
x[929] 1
x[930] 1
x[931] 1
x[932] 0
x[933] 0
x[934] 1
x[935] 0
x[936] 1
x[937] 0
x[938] 0
x[939] 1
x[940] 0
x[941] 0
x[942] 1
x[943] 1
x[944] 0
x[945] 1
x[946] 1
x[947] 0
x[948] 1
x[949] 1
x[950] 0
x[951] 1
x[952] 1
x[953] 1
x[954] 1
x[955] 0
x[956] 1
x[957] 1
x[958] 1
x[959] 1
x[960] 1
x[961] 0
x[962] 1
x[963] 0
x[964] 1
x[965] 0
x[966] 0
x[967] 1
x[968] 0
x[969] 0
x[970] 1
x[971] 0
x[972] 1
x[973] 0
x[974] 1
x[975] 1
x[976] 0
x[977] 0
x[978] 1
x[979] 1
x[980] 0
x[981] 1
x[982] 0
x[983] 1
x[984] 1
x[985] 0
x[986] 0
x[987] 0
x[988] 1
x[989] 0
x[990] 1
x[991] 0
x[992] 0
x[993] 0
x[994] 0
x[995] 0
x[996] 1
x[997] 0
x[998] 0
x[999] 0
